solutions/Insertion/cheapest/X-n190-k8.txt
[[[105], [105, 19], [105, 19, 188], [105, 19, 188, 57], [105, 19, 188, 57, 63], [105, 19, 188, 57, 172, 63], [105, 19, 188, 57, 172, 83, 63], [105, 19, 188, 57, 172, 182, 83, 63], [105, 19, 188, 57, 172, 182, 160, 83, 63], [105, 19, 188, 57, 172, 182, 160, 184, 83, 63], [105, 19, 188, 57, 172, 182, 160, 184, 165, 83, 63], [105, 19, 188, 57, 172, 182, 160, 184, 1, 165, 83, 63], [105, 19, 188, 57, 172, 182, 160, 184, 1, 88, 165, 83, 63], [105, 19, 188, 57, 172, 182, 160, 184, 1, 88, 44, 165, 83, 63], [105, 19, 188, 57, 172, 182, 160, 184, 1, 88, 44, 127, 165, 83, 63], [105, 19, 188, 57, 172, 182, 160, 184, 1, 88, 44, 127, 165, 149, 83, 63], [105, 19, 188, 57, 172, 182, 160, 184, 1, 88, 44, 127, 165, 149, 45, 83, 63], [105, 19, 188, 57, 172, 182, 160, 184, 1, 88, 44, 127, 165, 149, 31, 45, 83, 63], [105, 19, 188, 57, 172, 182, 160, 184, 1, 88, 44, 127, 165, 149, 31, 99, 45, 83, 63], [105, 19, 188, 57, 172, 182, 160, 184, 1, 88, 44, 127, 165, 139, 149, 31, 99, 45, 83, 63], [105, 19, 188, 57, 172, 182, 160, 184, 1, 88, 44, 127, 165, 72, 139, 149, 31, 99, 45, 83, 63], [105, 19, 188, 57, 172, 182, 160, 184, 1, 88, 44, 127, 165, 72, 133, 139, 149, 31, 99, 45, 83, 63], [105, 19, 188, 57, 172, 182, 160, 184, 1, 88, 44, 127, 165, 72, 133, 156, 139, 149, 31, 99, 45, 83, 63], [105, 19, 188, 57, 172, 182, 160, 184, 1, 88, 44, 127, 165, 72, 133, 156, 129, 139, 149, 31, 99, 45, 83, 63], [105, 19, 188, 57, 172, 182, 160, 184, 1, 88, 44, 127, 165, 72, 133, 156, 129, 139, 149, 31, 99, 45, 83, 63]], [[37], [37, 131], [37, 131, 118], [37, 131, 118, 29], [37, 131, 118, 29, 120], [37, 131, 118, 29, 120, 13], [37, 131, 118, 29, 120, 13, 171], [37, 131, 118, 29, 120, 13, 171, 168], [37, 131, 118, 29, 120, 13, 171, 168, 66], [37, 131, 118, 29, 120, 13, 171, 168, 66, 64], [37, 131, 118, 29, 120, 13, 171, 168, 66, 64, 110], [37, 131, 118, 29, 120, 13, 171, 168, 66, 64, 110, 102], [37, 131, 118, 29, 120, 13, 171, 168, 66, 64, 110, 102, 14], [37, 131, 118, 29, 120, 13, 171, 168, 66, 64, 110, 102, 14, 16], [37, 131, 118, 29, 120, 13, 171, 168, 66, 64, 110, 102, 14, 16, 170], [37, 131, 118, 29, 120, 13, 171, 168, 66, 64, 110, 102, 14, 16, 170, 119], [37, 131, 118, 29, 120, 13, 171, 168, 66, 64, 110, 102, 14, 16, 170, 119, 49], [37, 131, 118, 29, 120, 13, 171, 168, 66, 64, 110, 102, 14, 16, 170, 119, 49, 26], [37, 131, 118, 29, 120, 13, 171, 168, 66, 64, 110, 102, 14, 16, 170, 119, 49, 26, 106], [37, 131, 118, 29, 120, 13, 171, 168, 66, 64, 110, 102, 14, 16, 170, 119, 49, 26, 106, 108], [37, 131, 118, 29, 120, 13, 171, 168, 66, 64, 110, 102, 14, 16, 170, 119, 49, 26, 106, 108, 103], [37, 131, 118, 29, 120, 13, 171, 168, 66, 64, 110, 102, 14, 16, 170, 119, 49, 26, 106, 108, 103, 67], [37, 131, 118, 29, 120, 13, 171, 168, 66, 64, 110, 102, 14, 16, 170, 119, 49, 26, 106, 108, 103, 67, 4], [37, 131, 118, 29, 120, 13, 171, 168, 66, 64, 110, 102, 14, 16, 170, 119, 49, 26, 106, 108, 103, 67, 4, 163], [37, 131, 118, 29, 120, 13, 171, 168, 66, 64, 110, 102, 14, 16, 170, 119, 49, 26, 106, 108, 103, 67, 4, 163, 128], [37, 131, 118, 29, 120, 13, 171, 168, 66, 64, 110, 102, 14, 16, 170, 119, 49, 26, 106, 108, 103, 67, 4, 163, 128, 34], [37, 131, 118, 29, 120, 13, 171, 168, 66, 64, 110, 102, 14, 16, 170, 119, 49, 26, 106, 108, 103, 67, 4, 163, 128, 34, 95], [37, 131, 118, 29, 120, 13, 171, 168, 66, 64, 110, 102, 14, 16, 170, 119, 49, 26, 106, 108, 103, 67, 4, 163, 128, 34, 95, 73], [37, 131, 118, 29, 120, 13, 171, 168, 66, 64, 110, 102, 14, 16, 170, 119, 49, 26, 106, 108, 103, 67, 4, 163, 128, 34, 95, 73, 10], [37, 131, 118, 29, 120, 13, 171, 168, 66, 64, 110, 102, 14, 16, 170, 119, 49, 26, 106, 108, 103, 67, 4, 163, 128, 34, 95, 73, 10, 43], [37, 131, 118, 29, 120, 13, 171, 168, 66, 64, 110, 102, 14, 16, 170, 119, 49, 26, 106, 108, 103, 67, 4, 163, 128, 34, 95, 73, 10, 112, 43], [37, 131, 118, 29, 120, 13, 171, 168, 66, 64, 110, 102, 14, 16, 170, 119, 49, 26, 106, 108, 103, 67, 4, 163, 128, 34, 95, 73, 10, 112, 43]], [[117], [117, 166], [117, 166, 51], [117, 166, 51, 93], [117, 166, 51, 93, 75], [117, 166, 51, 93, 75, 157], [117, 166, 51, 93, 75, 157, 173], [117, 166, 51, 93, 75, 157, 173, 135], [117, 166, 51, 93, 75, 157, 173, 135, 46], [117, 166, 51, 93, 75, 157, 173, 135, 46, 92], [117, 166, 51, 93, 75, 157, 173, 135, 46, 92, 81], [117, 166, 51, 93, 75, 157, 173, 135, 46, 92, 81, 145], [117, 166, 51, 93, 75, 157, 173, 135, 46, 92, 81, 145, 115], [117, 166, 51, 93, 75, 157, 173, 135, 46, 92, 81, 145, 115, 144], [117, 166, 51, 93, 75, 157, 173, 135, 46, 92, 81, 145, 115, 144, 121], [117, 166, 51, 93, 75, 157, 173, 135, 46, 92, 81, 145, 115, 144, 121, 50], [117, 166, 51, 93, 75, 157, 173, 135, 46, 92, 81, 145, 115, 144, 121, 50, 94], [117, 166, 51, 93, 75, 157, 173, 135, 46, 92, 81, 145, 115, 144, 121, 50, 94, 21], [117, 166, 51, 93, 75, 157, 173, 135, 46, 92, 81, 145, 115, 144, 121, 50, 94, 21, 68], [117, 166, 51, 93, 75, 157, 173, 135, 46, 92, 81, 145, 115, 144, 121, 50, 94, 21, 68, 35], [117, 166, 51, 93, 75, 157, 173, 135, 46, 92, 81, 145, 115, 144, 121, 50, 94, 21, 68, 35, 109], [117, 166, 51, 93, 75, 157, 173, 135, 46, 92, 81, 145, 115, 144, 121, 50, 94, 21, 68, 35, 109, 89], [117, 166, 51, 93, 75, 157, 173, 135, 46, 92, 81, 145, 115, 144, 121, 50, 94, 21, 68, 35, 109, 89, 104], [117, 166, 51, 93, 75, 157, 173, 135, 46, 92, 81, 145, 115, 144, 121, 50, 94, 21, 68, 35, 109, 89, 104]], [[58], [58, 28], [58, 28, 159], [58, 28, 159, 138], [58, 28, 159, 138, 85], [58, 28, 159, 138, 85, 142], [58, 28, 159, 138, 85, 142, 80], [58, 28, 159, 138, 85, 142, 80, 169], [58, 28, 159, 138, 85, 142, 80, 169, 78], [58, 28, 159, 138, 85, 142, 80, 169, 78, 150], [58, 28, 159, 138, 85, 142, 80, 169, 78, 150, 147], [58, 28, 159, 138, 85, 142, 80, 169, 78, 150, 147, 30], [58, 28, 159, 138, 85, 142, 80, 169, 78, 150, 147, 30, 39], [58, 28, 159, 138, 85, 142, 80, 169, 78, 150, 147, 30, 39, 2], [58, 28, 159, 138, 85, 142, 80, 169, 78, 150, 147, 30, 39, 2, 36], [58, 28, 159, 138, 85, 142, 80, 169, 78, 150, 147, 30, 39, 2, 36, 38], [58, 28, 159, 138, 85, 142, 80, 169, 78, 150, 147, 30, 39, 2, 36, 38, 6], [58, 28, 159, 138, 85, 142, 80, 169, 78, 150, 147, 30, 39, 2, 36, 38, 6, 22], [58, 28, 159, 138, 85, 142, 80, 169, 78, 150, 147, 30, 39, 2, 36, 38, 6, 22, 77], [58, 28, 159, 138, 85, 142, 80, 169, 78, 150, 147, 30, 39, 2, 36, 38, 6, 22, 77, 86], [58, 28, 159, 138, 85, 142, 80, 169, 78, 150, 147, 30, 39, 2, 36, 38, 6, 22, 77, 86, 12], [58, 28, 159, 138, 85, 142, 80, 169, 78, 150, 147, 30, 39, 2, 36, 38, 6, 22, 77, 86, 12]], [[25], [25, 143], [25, 143, 97], [25, 143, 97, 24], [25, 143, 97, 24, 183], [25, 143, 97, 24, 183, 136], [25, 143, 97, 24, 183, 136, 167], [25, 143, 97, 24, 183, 136, 167, 123], [25, 143, 97, 24, 183, 136, 167, 123, 52], [25, 143, 97, 24, 183, 136, 167, 123, 52, 71], [25, 143, 97, 24, 183, 136, 167, 123, 52, 71, 177], [25, 143, 97, 24, 183, 136, 167, 123, 52, 71, 177, 101], [25, 143, 97, 24, 183, 136, 167, 123, 52, 71, 177, 101, 47], [25, 143, 97, 24, 183, 136, 167, 123, 52, 71, 177, 101, 47, 5], [25, 143, 97, 24, 183, 136, 167, 123, 52, 71, 177, 101, 47, 5, 176], [25, 143, 97, 24, 183, 136, 167, 123, 52, 71, 177, 101, 47, 5, 176, 125], [25, 143, 97, 24, 183, 136, 167, 123, 52, 71, 177, 101, 47, 5, 176, 125, 137], [25, 143, 97, 24, 183, 136, 167, 123, 52, 71, 177, 101, 47, 5, 176, 125, 137, 151], [25, 143, 97, 24, 183, 136, 167, 123, 52, 71, 177, 101, 47, 5, 176, 125, 137, 151, 174], [25, 143, 97, 24, 183, 136, 167, 123, 52, 71, 177, 101, 47, 5, 176, 125, 137, 151, 174, 48], [25, 143, 97, 24, 183, 136, 167, 123, 52, 71, 177, 101, 47, 5, 176, 125, 137, 151, 174, 48, 130], [25, 143, 97, 24, 183, 136, 167, 123, 52, 71, 177, 101, 47, 5, 176, 125, 137, 151, 174, 48, 130, 56], [25, 143, 97, 24, 183, 136, 167, 123, 52, 71, 177, 101, 47, 5, 176, 125, 137, 151, 174, 48, 130, 56, 8], [25, 143, 97, 24, 183, 136, 167, 123, 52, 71, 177, 101, 47, 5, 176, 125, 137, 151, 174, 48, 130, 56, 8, 100], [25, 143, 97, 24, 183, 136, 167, 123, 52, 71, 177, 101, 47, 5, 176, 125, 137, 151, 174, 48, 130, 56, 8, 100, 62], [25, 143, 97, 24, 183, 136, 167, 123, 52, 71, 177, 101, 47, 5, 176, 125, 137, 151, 174, 48, 130, 56, 8, 100, 62, 179], [25, 143, 97, 24, 183, 136, 167, 123, 52, 71, 177, 101, 47, 5, 176, 125, 137, 151, 174, 48, 130, 56, 8, 100, 62, 179, 178], [25, 143, 97, 24, 183, 136, 167, 123, 52, 71, 177, 101, 47, 5, 176, 125, 137, 151, 174, 48, 130, 56, 8, 100, 62, 179, 178, 69], [25, 143, 97, 24, 183, 136, 167, 123, 52, 71, 177, 101, 47, 5, 176, 125, 137, 151, 174, 48, 130, 56, 8, 100, 62, 179, 178, 69]], [[175], [175, 11], [175, 11, 60], [175, 11, 60, 116], [175, 11, 60, 116, 79], [175, 11, 60, 116, 79, 155], [175, 11, 60, 116, 79, 155, 17], [175, 11, 60, 116, 79, 155, 17, 134], [175, 11, 60, 116, 79, 155, 17, 134, 132], [175, 11, 60, 116, 79, 155, 17, 134, 132, 161], [175, 11, 60, 116, 79, 155, 17, 134, 132, 161, 74], [175, 11, 60, 116, 79, 155, 17, 134, 132, 161, 74, 111], [175, 11, 60, 116, 79, 155, 17, 134, 132, 161, 74, 111, 23], [175, 11, 60, 116, 79, 155, 17, 134, 132, 161, 74, 111, 23, 164], [175, 11, 60, 116, 79, 155, 17, 134, 132, 161, 74, 111, 23, 164, 158], [175, 11, 60, 116, 79, 155, 17, 134, 132, 161, 74, 111, 23, 164, 158, 113], [175, 11, 60, 116, 79, 155, 17, 134, 132, 161, 74, 111, 23, 164, 158, 113, 107], [175, 11, 60, 116, 79, 155, 17, 134, 132, 161, 74, 111, 23, 164, 158, 113, 107, 33], [175, 11, 60, 116, 79, 155, 17, 134, 132, 161, 74, 111, 23, 164, 158, 113, 107, 33, 7], [175, 11, 60, 116, 79, 155, 17, 134, 132, 161, 74, 111, 23, 164, 158, 113, 107, 33, 7, 162], [175, 11, 60, 116, 79, 155, 17, 134, 132, 161, 74, 111, 23, 164, 158, 113, 107, 33, 7, 162, 20], [175, 11, 60, 116, 79, 155, 17, 134, 132, 161, 74, 111, 23, 164, 158, 113, 107, 33, 7, 162, 20, 65], [175, 11, 60, 116, 79, 155, 17, 134, 132, 161, 74, 111, 23, 164, 158, 113, 107, 33, 7, 162, 20, 65, 114], [175, 11, 60, 116, 79, 155, 17, 134, 132, 161, 74, 111, 23, 164, 158, 113, 107, 33, 7, 162, 20, 65, 114]], [[55], [55, 59], [55, 59, 91], [55, 59, 91, 96], [55, 59, 91, 96, 9], [55, 59, 91, 96, 9, 3], [55, 59, 91, 96, 9, 3, 90], [55, 59, 91, 96, 9, 3, 90, 42], [55, 59, 91, 96, 9, 3, 90, 42, 54], [55, 59, 91, 96, 9, 3, 90, 42, 54, 126], [55, 59, 91, 96, 9, 3, 90, 42, 54, 126, 181], [55, 59, 91, 96, 9, 3, 90, 42, 54, 126, 181, 41], [55, 59, 91, 96, 9, 3, 90, 42, 54, 126, 181, 41, 152], [55, 59, 91, 96, 9, 3, 90, 42, 54, 126, 181, 41, 152, 87], [55, 59, 91, 96, 9, 3, 90, 42, 54, 126, 181, 41, 152, 87, 186], [55, 59, 91, 96, 9, 3, 90, 42, 54, 126, 181, 41, 152, 87, 186, 146], [55, 59, 91, 96, 9, 3, 90, 42, 54, 126, 181, 41, 152, 87, 186, 146, 70], [55, 59, 91, 96, 9, 3, 90, 42, 54, 126, 181, 41, 152, 87, 186, 146, 70, 76], [55, 59, 91, 96, 9, 3, 90, 42, 54, 126, 181, 41, 152, 87, 186, 146, 70, 76, 15], [55, 59, 91, 96, 9, 3, 90, 42, 54, 126, 181, 41, 152, 87, 186, 146, 70, 76, 15, 27], [55, 59, 91, 96, 9, 3, 90, 42, 54, 126, 181, 41, 152, 87, 186, 146, 70, 76, 15, 27, 187], [55, 59, 91, 96, 9, 3, 90, 42, 54, 126, 181, 41, 152, 87, 186, 146, 70, 76, 15, 27, 187, 53], [55, 59, 91, 96, 9, 3, 90, 42, 54, 126, 181, 41, 152, 87, 186, 146, 70, 76, 15, 27, 187, 53]], [[122], [122, 154], [122, 154, 189], [122, 154, 189, 140], [122, 154, 189, 140, 124], [122, 154, 189, 140, 124, 40], [122, 154, 189, 140, 124, 40, 61], [122, 154, 189, 140, 124, 40, 61, 180], [122, 154, 189, 140, 124, 40, 61, 180, 32], [122, 154, 189, 140, 124, 40, 61, 180, 32, 18], [122, 154, 189, 140, 124, 40, 61, 180, 32, 18, 185], [122, 154, 189, 140, 124, 40, 61, 180, 32, 18, 185, 84], [122, 154, 189, 140, 124, 40, 61, 180, 32, 18, 185, 84, 153], [122, 154, 189, 140, 124, 40, 61, 180, 32, 18, 185, 84, 153, 98], [122, 154, 189, 140, 124, 40, 61, 180, 32, 18, 185, 84, 153, 98, 141], [122, 154, 189, 140, 124, 40, 61, 180, 32, 18, 185, 84, 153, 98, 141, 82], [122, 154, 189, 140, 124, 40, 61, 180, 32, 18, 185, 84, 153, 98, 141, 82, 148], [122, 154, 189, 140, 124, 40, 61, 180, 32, 18, 185, 84, 153, 98, 141, 82, 148]]]