solutions/Insertion/cheapest/X-n190-k8.sol
Route #1: 105 19 188 57 172 182 160 184 1 88 44 127 165 72 133 156 129 139 149 31 99 45 83 63
Route #2: 37 131 118 29 120 13 171 168 66 64 110 102 14 16 170 119 49 26 106 108 103 67 4 163 128 34 95 73 10 112 43
Route #3: 117 166 51 93 75 157 173 135 46 92 81 145 115 144 121 50 94 21 68 35 109 89 104
Route #4: 58 28 159 138 85 142 80 169 78 150 147 30 39 2 36 38 6 22 77 86 12
Route #5: 25 143 97 24 183 136 167 123 52 71 177 101 47 5 176 125 137 151 174 48 130 56 8 100 62 179 178 69
Route #6: 175 11 60 116 79 155 17 134 132 161 74 111 23 164 158 113 107 33 7 162 20 65 114
Route #7: 55 59 91 96 9 3 90 42 54 126 181 41 152 87 186 146 70 76 15 27 187 53
Route #8: 122 154 189 140 124 40 61 180 32 18 185 84 153 98 141 82 148
cost: 20257
